6    8    2
 4  2 1 2 22 2 5 6 38 2 3 4 32 2 7 8 26
 3  2 3 4 42 2 5 6 32 2 7 8 28
 4  2 5 6 16 2 3 4 20 2 1 2 28 2 7 8 18
 3  2 3 4 26 2 5 6 40 2 7 8 20
 3  2 1 2 18 2 5 6 32 2 7 8 36
 4  2 3 4 38 2 1 2 42 2 5 6 22 2 7 8 30